Minimize
	value: tt

Subject to
tt + 500 s_1_1 > 0.0
tt - t_1_1 - 500.000000 s_1_1 > -495.721300
tt + 500 s_2_1 > 0.0
tt - t_2_1 - 500.000000 s_2_1 > -493.096300
tt + 500 s_1_2 > 0.0
tt - t_1_2 - 500.000000 s_1_2 > -492.362100
tt + 500 s_2_2 > 0.0
tt - t_2_2 - 500.000000 s_2_2 > -488.144200
tt + 500 s_1_3 > 0.0
tt - t_1_3 - 500.000000 s_1_3 > -486.230900
tt + 500 s_2_3 > 0.0
tt - t_2_3 - 500.000000 s_2_3 > -479.807800
tt + 500 s_1_4 > 0.0
tt - t_1_4 - 500.000000 s_1_4 > -493.618600
tt + 500 s_2_4 > 0.0
tt - t_2_4 - 500.000000 s_2_4 > -488.627533
tt + 500 s_1_5 > 0.0
tt - t_1_5 - 542.577778 s_1_5 + 42.577778 s_1_4 > -498.985200
tt + 500 s_2_5 > 0.0
tt - t_2_5 - 545.865519 s_2_5 + 45.865519 s_2_4 > -497.364100
s_1_1 + s_2_1  = 1
s_1_2 + s_2_2  = 1
s_1_3 + s_2_3  = 1
s_1_4 + s_2_4  = 1
s_1_5 + s_2_5  = 1
s_1_1 + s_1_2 + 500 r_1_1_2 >= 2
- s_1_1 - s_1_2 - 500 r_1_1_2 >= -501
t_1_1 - t_1_2 - 500.000000 u_1_1_2 + 2048.000000 r_1_1_2 > -492.362100
s_2_1 + s_2_2 + 500 r_2_1_2 >= 2
- s_2_1 - s_2_2 - 500 r_2_1_2 >= -501
t_2_1 - t_2_2 - 500.000000 u_2_1_2 + 2048.000000 r_2_1_2 > -488.144200
s_1_1 + s_1_3 + 500 r_1_1_3 >= 2
- s_1_1 - s_1_3 - 500 r_1_1_3 >= -501
t_1_1 - t_1_3 - 500.000000 u_1_1_3 + 2048.000000 r_1_1_3 > -486.230900
s_2_1 + s_2_3 + 500 r_2_1_3 >= 2
- s_2_1 - s_2_3 - 500 r_2_1_3 >= -501
t_2_1 - t_2_3 - 500.000000 u_2_1_3 + 2048.000000 r_2_1_3 > -479.807800
s_1_1 + s_1_4 + 500 r_1_1_4 >= 2
- s_1_1 - s_1_4 - 500 r_1_1_4 >= -501
t_1_1 - t_1_4 - 500.000000 u_1_1_4 + 2048.000000 r_1_1_4 > -493.618600
s_2_1 + s_2_4 + 500 r_2_1_4 >= 2
- s_2_1 - s_2_4 - 500 r_2_1_4 >= -501
t_2_1 - t_2_4 - 500.000000 u_2_1_4 + 2048.000000 r_2_1_4 > -488.627533
t_1_5 - t_1_1 - 500.000000 s_1_1 > -495.721300
t_1_5 - t_2_1 - 500.000000 s_2_1 > -493.096300
t_2_5 - t_1_1 - 500.000000 s_1_1 > -495.721300
t_2_5 - t_2_1 - 500.000000 s_2_1 > -493.096300
s_1_2 + s_1_1 + 500 r_1_1_2 >= 2
- s_1_2 - s_1_1 - 500 r_1_1_2 >= -501
t_1_2 - t_1_1 + 500.000000 u_1_1_2 + 2048.000000 r_1_1_2 > 4.278700
s_2_2 + s_2_1 + 500 r_2_1_2 >= 2
- s_2_2 - s_2_1 - 500 r_2_1_2 >= -501
t_2_2 - t_2_1 + 500.000000 u_2_1_2 + 2048.000000 r_2_1_2 > 6.903700
s_1_2 + s_1_3 + 500 r_1_2_3 >= 2
- s_1_2 - s_1_3 - 500 r_1_2_3 >= -501
t_1_2 - t_1_3 - 500.000000 u_1_2_3 + 2048.000000 r_1_2_3 > -486.230900
s_2_2 + s_2_3 + 500 r_2_2_3 >= 2
- s_2_2 - s_2_3 - 500 r_2_2_3 >= -501
t_2_2 - t_2_3 - 500.000000 u_2_2_3 + 2048.000000 r_2_2_3 > -479.807800
s_1_2 + s_1_4 + 500 r_1_2_4 >= 2
- s_1_2 - s_1_4 - 500 r_1_2_4 >= -501
t_1_2 - t_1_4 - 500.000000 u_1_2_4 + 2048.000000 r_1_2_4 > -493.618600
s_2_2 + s_2_4 + 500 r_2_2_4 >= 2
- s_2_2 - s_2_4 - 500 r_2_2_4 >= -501
t_2_2 - t_2_4 - 500.000000 u_2_2_4 + 2048.000000 r_2_2_4 > -488.627533
t_1_5 - t_1_2 - 500.000000 s_1_2 > -492.362100
t_1_5 - t_2_2 - 500.000000 s_2_2 > -488.144200
t_2_5 - t_1_2 - 500.000000 s_1_2 > -492.362100
t_2_5 - t_2_2 - 500.000000 s_2_2 > -488.144200
s_1_3 + s_1_1 + 500 r_1_1_3 >= 2
- s_1_3 - s_1_1 - 500 r_1_1_3 >= -501
t_1_3 - t_1_1 + 500.000000 u_1_1_3 + 2048.000000 r_1_1_3 > 4.278700
s_2_3 + s_2_1 + 500 r_2_1_3 >= 2
- s_2_3 - s_2_1 - 500 r_2_1_3 >= -501
t_2_3 - t_2_1 + 500.000000 u_2_1_3 + 2048.000000 r_2_1_3 > 6.903700
s_1_3 + s_1_2 + 500 r_1_2_3 >= 2
- s_1_3 - s_1_2 - 500 r_1_2_3 >= -501
t_1_3 - t_1_2 + 500.000000 u_1_2_3 + 2048.000000 r_1_2_3 > 7.637900
s_2_3 + s_2_2 + 500 r_2_2_3 >= 2
- s_2_3 - s_2_2 - 500 r_2_2_3 >= -501
t_2_3 - t_2_2 + 500.000000 u_2_2_3 + 2048.000000 r_2_2_3 > 11.855800
s_1_3 + s_1_4 + 500 r_1_3_4 >= 2
- s_1_3 - s_1_4 - 500 r_1_3_4 >= -501
t_1_3 - t_1_4 - 500.000000 u_1_3_4 + 2048.000000 r_1_3_4 > -493.618600
s_2_3 + s_2_4 + 500 r_2_3_4 >= 2
- s_2_3 - s_2_4 - 500 r_2_3_4 >= -501
t_2_3 - t_2_4 - 500.000000 u_2_3_4 + 2048.000000 r_2_3_4 > -488.627533
t_1_5 - t_1_3 - 500.000000 s_1_3 > -486.230900
t_1_5 - t_2_3 - 500.000000 s_2_3 > -479.807800
t_2_5 - t_1_3 - 500.000000 s_1_3 > -486.230900
t_2_5 - t_2_3 - 500.000000 s_2_3 > -479.807800
s_1_4 + s_1_1 + 500 r_1_1_4 >= 2
- s_1_4 - s_1_1 - 500 r_1_1_4 >= -501
t_1_4 - t_1_1 + 500.000000 u_1_1_4 + 2048.000000 r_1_1_4 > 4.278700
s_2_4 + s_2_1 + 500 r_2_1_4 >= 2
- s_2_4 - s_2_1 - 500 r_2_1_4 >= -501
t_2_4 - t_2_1 + 500.000000 u_2_1_4 + 2048.000000 r_2_1_4 > 6.903700
s_1_4 + s_1_2 + 500 r_1_2_4 >= 2
- s_1_4 - s_1_2 - 500 r_1_2_4 >= -501
t_1_4 - t_1_2 + 500.000000 u_1_2_4 + 2048.000000 r_1_2_4 > 7.637900
s_2_4 + s_2_2 + 500 r_2_2_4 >= 2
- s_2_4 - s_2_2 - 500 r_2_2_4 >= -501
t_2_4 - t_2_2 + 500.000000 u_2_2_4 + 2048.000000 r_2_2_4 > 11.855800
s_1_4 + s_1_3 + 500 r_1_3_4 >= 2
- s_1_4 - s_1_3 - 500 r_1_3_4 >= -501
t_1_4 - t_1_3 + 500.000000 u_1_3_4 + 2048.000000 r_1_3_4 > 13.769100
s_2_4 + s_2_3 + 500 r_2_3_4 >= 2
- s_2_4 - s_2_3 - 500 r_2_3_4 >= -501
t_2_4 - t_2_3 + 500.000000 u_2_3_4 + 2048.000000 r_2_3_4 > 20.192200
t_1_5 - t_1_4 - 500.000000 s_1_4 > -493.618600
t_1_5 - t_2_4 - 500.000000 s_2_4 > -488.627533
t_2_5 - t_1_4 - 500.000000 s_1_4 > -493.618600
t_2_5 - t_2_4 - 500.000000 s_2_4 > -488.627533
Binary
s_1_1
s_2_1
s_1_2
s_2_2
s_1_3
s_2_3
s_1_4
s_2_4
s_1_5
s_2_5
u_1_1_2
r_1_1_2
u_2_1_2
r_2_1_2
u_1_1_3
r_1_1_3
u_2_1_3
r_2_1_3
u_1_1_4
r_1_1_4
u_2_1_4
r_2_1_4
u_1_2_3
r_1_2_3
u_2_2_3
r_2_2_3
u_1_2_4
r_1_2_4
u_2_2_4
r_2_2_4
u_1_3_4
r_1_3_4
u_2_3_4
r_2_3_4

End
